c instance by G2
c solution = 10011111000111010
c Known solution cost is 932 
p cnf 17 30
w 56 66 11 91 69 17 91 18 60 23 55 83 13 66 71 99 43
-4 -8 -9 0
-3 -1 16 0
-15 6 -3 0
8 2 17 0
-4 -11 -5 0
15 -16 4 0
-14 16 -12 0
-6 10 5 0
-9 -6 14 0
-2 -14 8 0
15 9 6 0
11 3 -9 0
-3 -16 9 0
2 11 7 0
5 -1 -4 0
4 6 11 0
-1 -2 9 0
-7 14 -16 0
-7 -17 -13 0
-15 3 10 0
-11 -1 13 0
3 9 1 0
12 -7 -4 0
-8 10 -17 0
-14 -4 -10 0
-6 7 11 0
13 -5 -14 0
17 -11 -1 0
-1 17 14 0
-2 15 9 0
